c 9th DIMACS Implementation Challenge: Shortest Paths
c http://www.dis.uniroma1.it/~challenge9
c TIGER/Line nodes coords for graph USA-road-d.FLA
c
p aux sp co 1070376
c graph contains 1070376 nodes
c
v 1 -87398204 30620944
v 2 -87404928 30632325
v 3 -87499260 30681366
v 4 -87444346 30405894
v 5 -87421499 30421829
v 6 -87419205 30421875
v 7 -87421424 30420520
v 8 -87451202 30429171
v 9 -87447340 30429203
v 10 -87451238 30429732
v 11 -87477467 30483708
v 12 -87478032 30483975
v 13 -87477317 30483025
v 14 -87477366 30483829
v 15 -87477881 30485929
v 16 -87477402 30483891
v 17 -87446822 30418618
v 18 -87446855 30416164
v 19 -87444774 30418672
v 20 -87419093 30420595
v 21 -87419067 30420300
v 22 -87411209 30422035
v 23 -87409501 30422069
v 24 -87411206 30424276
v 25 -87411264 30419962
